(set-info :smt-lib-version 2.6)
(set-logic QF_UFLRA)
(set-info :source |
MathSat group

|)
(set-info :category "random")
(set-info :status sat)
(declare-fun x0 () Real)
(declare-fun x1 () Real)
(declare-fun x2 () Real)
(declare-fun x3 () Real)
(declare-fun x4 () Real)
(declare-fun x5 () Real)
(declare-fun x6 () Real)
(declare-fun x7 () Real)
(declare-fun x8 () Real)
(declare-fun x9 () Real)
(declare-fun x10 () Real)
(declare-fun x11 () Real)
(declare-fun x12 () Real)
(declare-fun x13 () Real)
(declare-fun x14 () Real)
(declare-fun x15 () Real)
(declare-fun x16 () Real)
(declare-fun x17 () Real)
(declare-fun x18 () Real)
(declare-fun x19 () Real)
(declare-fun x20 () Real)
(declare-fun x21 () Real)
(declare-fun x22 () Real)
(declare-fun x23 () Real)
(declare-fun x24 () Real)
(declare-fun x25 () Real)
(declare-fun x26 () Real)
(declare-fun x27 () Real)
(declare-fun x28 () Real)
(declare-fun x29 () Real)
(declare-fun x30 () Real)
(declare-fun x31 () Real)
(declare-fun x32 () Real)
(declare-fun x33 () Real)
(declare-fun x34 () Real)
(declare-fun x35 () Real)
(declare-fun x36 () Real)
(declare-fun x37 () Real)
(declare-fun x38 () Real)
(declare-fun x39 () Real)
(declare-fun f0_1 (Real) Real)
(declare-fun f0_2 (Real Real) Real)
(declare-fun f0_3 (Real Real Real) Real)
(declare-fun f0_4 (Real Real Real Real) Real)
(declare-fun P0 () Bool)
(declare-fun P1 () Bool)
(declare-fun P2 () Bool)
(declare-fun P3 () Bool)
(declare-fun P4 () Bool)
(declare-fun P5 () Bool)
(declare-fun P6 () Bool)
(declare-fun P7 () Bool)
(declare-fun P8 () Bool)
(declare-fun P9 () Bool)
(declare-fun P10 () Bool)
(declare-fun P11 () Bool)
(declare-fun P12 () Bool)
(declare-fun P13 () Bool)
(declare-fun P14 () Bool)
(declare-fun P15 () Bool)
(declare-fun P16 () Bool)
(declare-fun P17 () Bool)
(declare-fun P18 () Bool)
(declare-fun P19 () Bool)
(declare-fun P20 () Bool)
(declare-fun P21 () Bool)
(declare-fun P22 () Bool)
(declare-fun P23 () Bool)
(declare-fun P24 () Bool)
(declare-fun P25 () Bool)
(declare-fun P26 () Bool)
(declare-fun P27 () Bool)
(declare-fun P28 () Bool)
(declare-fun P29 () Bool)
(declare-fun P30 () Bool)
(declare-fun P31 () Bool)
(declare-fun P32 () Bool)
(declare-fun P33 () Bool)
(declare-fun P34 () Bool)
(declare-fun P35 () Bool)
(declare-fun P36 () Bool)
(declare-fun P37 () Bool)
(declare-fun P38 () Bool)
(declare-fun P39 () Bool)
(assert (let ((?v_131 (= (+ (- (* 26 x26) (* 30 x12)) (* 40 x31)) 0)) (?v_32 (= (- (+ (* 46 x13) (* 38 x12)) (* 10 x32)) 36)) (?v_97 (<= (- (- (* 51 x38) (* 41 x19)) (* 57 x21)) 38)) (?v_6 (<= (- (- (* 14 x5) (* 21 x37)) (* 37 x4)) 30)) (?v_149 (* 26 x29)) (?v_171 (<= (- (- (* 44 x34) (* 38 x32)) (* 54 x33)) 48)) (?v_153 (distinct (+ (- (* 50 x3) (* 44 x8)) (* 13 x12)) 16)) (?v_8 (<= (- (+ (* 31 x17) (* 21 x31)) (* 3 x33)) 47)) (?v_163 (= (+ (- (* 17 x32) (* 5 x6)) (* 40 x10)) 37)) (?v_151 (= (+ (- (* 35 x16) (* 6 x27)) (* 44 x36)) 16)) (?v_37 (= (- (- (* 45 x8) (* 14 x18)) (* 5 x16)) 44)) (?v_129 (< (- (+ (* 40 x29) (* 37 x18)) (* 19 x20)) 39)) (?v_175 (< (- (- (* 16 x8) (* 45 x9)) (* 44 x3)) 6)) (?v_46 (distinct (f0_1 x13) x9)) (?v_10 (f0_1 x20))) (let ((?v_1 (= x27 ?v_10)) (?v_206 (distinct (f0_1 x21) x24)) (?v_11 (f0_1 x37))) (let ((?v_29 (distinct ?v_10 ?v_11)) (?v_28 (distinct (f0_2 x32 x4) x37)) (?v_158 (= x10 x33)) (?v_60 (distinct x16 (f0_2 x8 x14))) (?v_5 (f0_1 x29))) (let ((?v_103 (distinct (f0_1 x16) ?v_5)) (?v_7 (= (f0_1 x23) x32)) (?v_49 (distinct (f0_2 x28 x23) x26)) (?v_41 (distinct x17 x23)) (?v_148 (f0_1 x6))) (let ((?v_3 (distinct ?v_11 ?v_148)) (?v_19 (f0_1 x0))) (let ((?v_91 (= ?v_19 (f0_2 x39 x31))) (?v_168 (= (f0_1 x15) x8)) (?v_12 (= x3 (f0_2 x36 x36))) (?v_75 (f0_1 x36))) (let ((?v_90 (distinct x38 ?v_75)) (?v_23 (= x27 (f0_1 x30))) (?v_30 (f0_1 x28))) (let ((?v_177 (distinct x29 ?v_30)) (?v_14 (f0_1 x25))) (let ((?v_71 (distinct ?v_14 (f0_2 x16 x4))) (?v_94 (distinct x37 (f0_2 x21 x21))) (?v_118 (distinct (f0_1 x38) (f0_2 x5 x15))) (?v_56 (= (f0_2 x7 x38) (f0_1 x22))) (?v_45 (distinct x37 ?v_5)) (?v_73 (distinct x26 (f0_2 x37 x12))) (?v_120 (= (f0_2 x15 x24) (f0_1 x5))) (?v_110 (= ?v_75 ?v_30)) (?v_70 (distinct (f0_2 x13 x5) (f0_1 x27))) (?v_98 (distinct x13 ?v_14)) (?v_61 (= x5 (f0_2 x26 x35))) (?v_114 (= x32 (f0_1 x31))) (?v_155 (= ?v_148 x34)) (?v_196 (= (f0_2 x26 x7) (f0_1 x26))) (?v_160 (distinct (f0_1 x11) x10)) (?v_26 (= (f0_2 x6 x7) ?v_19)) (?v_106 (distinct (f0_2 x5 x26) x26)) (?v_18 (distinct x31 x25)) (?v_34 (distinct ?v_19 (f0_2 x8 x35))) (?v_21 (= (f0_1 x39) x13)) (?v_80 (distinct (f0_1 x33) x24)) (?v_152 (= x1 (f0_2 x25 x24))) (?v_52 (not P26)) (?v_33 (not P36)) (?v_150 (not P6))) (let ((?v_123 (not ?v_71)) (?v_0 (not P20)) (?v_38 (not P15)) (?v_9 (not ?v_60)) (?v_167 (not ?v_1)) (?v_95 (not ?v_49)) (?v_81 (not ?v_32)) (?v_24 (not ?v_46)) (?v_89 (not P27)) (?v_92 (not P3)) (?v_195 (not ?v_7)) (?v_82 (not ?v_73)) (?v_109 (not ?v_177)) (?v_144 (not ?v_163)) (?v_100 (not ?v_129)) (?v_64 (not ?v_21)) (?v_188 (not ?v_103)) (?v_99 (not P35)) (?v_40 (not ?v_6)) (?v_139 (not ?v_8)) (?v_68 (not P12)) (?v_111 (not P0)) (?v_51 (not ?v_29)) (?v_16 (not ?v_12)) (?v_185 (not P29)) (?v_17 (not ?v_98)) (?v_101 (not P17)) (?v_42 (not ?v_34)) (?v_166 (not ?v_61)) (?v_105 (not ?v_120)) (?v_93 (not P31)) (?v_22 (not P14)) (?v_35 (not ?v_18)) (?v_59 (not P37)) (?v_31 (not ?v_23)) (?v_135 (not ?v_80)) (?v_62 (not P1)) (?v_186 (not ?v_28)) (?v_162 (not P18)) (?v_88 (not ?v_37)) (?v_137 (not ?v_26)) (?v_157 (not P39)) (?v_146 (not ?v_175)) (?v_127 (not P9)) (?v_63 (not ?v_196)) (?v_47 (not P38)) (?v_125 (not P2)) (?v_67 (not ?v_41)) (?v_48 (not ?v_91)) (?v_184 (not P32)) (?v_117 (not P33)) (?v_76 (not P34)) (?v_83 (not ?v_56)) (?v_87 (not ?v_160)) (?v_58 (not ?v_45)) (?v_178 (not P25)) (?v_96 (not ?v_3)) (?v_115 (not P24)) (?v_78 (not ?v_206)) (?v_192 (not P23)) (?v_126 (not P8)) (?v_194 (not ?v_168)) (?v_112 (not ?v_97)) (?v_132 (not ?v_118)) (?v_108 (not ?v_106)) (?v_173 (not ?v_110)) (?v_116 (not P28)) (?v_204 (not P10)) (?v_141 (not ?v_90)) (?v_147 (not P13)) (?v_140 (not P30)) (?v_187 (not P22)) (?v_136 (not P19)) (?v_159 (not P7)) (?v_176 (not ?v_114)) (?v_198 (not P11)) (?v_165 (not ?v_94)) (?v_161 (not P5)) (?v_191 (not ?v_152)) (?v_174 (not ?v_70)) (?v_179 (not ?v_158)) (?v_169 (not ?v_155)) (?v_183 (not P4)) (?v_201 (not ?v_131)) (?v_205 (not ?v_153)) (?v_202 (not P16)) (?v_193 (not ?v_151)) (?v_199 (not P21)) (?v_207 (not ?v_171)) (?v_15 (< (+ (* 16 x12) (* 7 x8) (* 18 x5)) 28))) (let ((?v_66 (not ?v_15)) (?v_197 (distinct (+ (* 34 x10) (* 45 x28)) 38))) (let ((?v_138 (not ?v_197)) (?v_77 (<= (+ (- (* (- 23) x19) (* 28 x3)) (* 43 x18)) 31))) (let ((?v_2 (not ?v_77)) (?v_172 (< (- (- (* 2 x14) ?v_149) (* 41 x22)) (- 59)))) (let ((?v_43 (not ?v_172)) (?v_13 (<= (- (+ (* 29 x10) (* 50 x18)) (* 23 x16)) (- 9))) (?v_36 (distinct (- (- (* (- 30) x2) (* 45 x35)) (* 45 x10)) 56))) (let ((?v_113 (not ?v_36)) (?v_39 (< (- (+ (* 55 x33) (* 24 x15)) (* 57 x4)) (- 7)))) (let ((?v_143 (not ?v_39)) (?v_27 (<= (+ (- (* 30 x0) (* 54 x12)) (* 31 x24)) (- 52))) (?v_44 (distinct (- (+ (* 14 x39) (* 5 x19)) (* 12 x16)) (- 49))) (?v_79 (< (- (- (* (- 33) x32) (* 41 x8)) (* 19 x13)) (- 55))) (?v_133 (<= (+ (- (* (- 16) x25) (* 24 x29)) (* 41 x4)) (- 48))) (?v_4 (<= (- (- (* (- 8) x14) (* 48 x37)) (* 24 x7)) 0)) (?v_65 (< (- (- (* (- 57) x29) (* 19 x26)) (* 55 x19)) (- 47)))) (let ((?v_102 (not ?v_65)) (?v_20 (not ?v_4)) (?v_119 (not ?v_13)) (?v_128 (distinct (- (+ (* (- 19) x9) (* 19 x33)) (* 40 x36)) (- 22)))) (let ((?v_84 (not ?v_128)) (?v_69 (<= (- (* 21 x32) (* 51 x17)) (- 7)))) (let ((?v_156 (not ?v_69)) (?v_25 (<= (- (+ (* 10 x26) (* 54 x6)) (* 7 x7)) (- 13)))) (let ((?v_57 (not ?v_25)) (?v_74 (<= (+ (* 25 x21) (* 22 x30) (* 54 x8)) (- 2)))) (let ((?v_170 (not ?v_74)) (?v_50 (< (+ (* 7 x31) (* 29 x35) (* 52 x23)) (- 22))) (?v_54 (<= (- (- (* (- 24) x20) (* 23 x27)) (* 34 x16)) 0))) (let ((?v_72 (not ?v_54)) (?v_53 (<= (+ (- (* (- 10) x16) (* 50 x8)) (* 44 x14)) (- 51))) (?v_104 (<= (+ (- (* (- 26) x37) (* 21 x11)) (* 38 x26)) (- 33))) (?v_55 (not ?v_44)) (?v_85 (not ?v_50)) (?v_130 (< (+ (* (- 9) x17) (* 41 x5) (* 54 x5)) 6))) (let ((?v_122 (not ?v_53)) (?v_107 (= (+ (* (- 18) x8) (* 43 x38) (* 52 x15)) (- 28))) (?v_145 (< (+ (- (* 30 x26) (* 26 x10)) (* 5 x29)) (- 48)))) (let ((?v_121 (not ?v_145)) (?v_86 (not ?v_79)) (?v_181 (= (- (+ (* (- 7) x29) (* 45 x21)) (* 56 x13)) (- 43))) (?v_142 (not ?v_27)) (?v_134 (< (+ (- (* 24 x24) (* 8 x25)) (* 37 x26)) (- 39))) (?v_124 (<= (+ (- (* (- 33) x11) (* 14 x28)) (* 3 x12)) (- 57)))) (let ((?v_164 (not ?v_124)) (?v_154 (<= (+ (* 50 x27) (* 13 x24) ?v_149) (- 16)))) (let ((?v_208 (not ?v_154)) (?v_200 (not ?v_134)) (?v_180 (not ?v_133)) (?v_189 (not ?v_107)) (?v_190 (not ?v_130)) (?v_203 (not ?v_104)) (?v_182 (not ?v_181))) (and (and (and (and (and (and (and (and (and (and (and (and (and (and (and (and (and (and (and (and (and (and (and (and (and (and (and (and (and (and (and (and (and (and (and (and (and (and (and (and (and (and (and (and (and (and (and (and (and (and (and (and (and (and (and (and (and (and (and (and (and (and (and (and (and (and (and (and (and (and (and (and (and (and (and (and (and (and (and (and (and (and (and (and (and (and (and (and (and (and (and (and (and (and (and (and (and (and (and (and (and (and (and (and (and (and (and (and (and (and (and (and (and (and (and (and (and (and (and (and (and (and (and (and (and (and (and (and (and (and (and (and (and (and (and (and (and (and (and (and (and (and (and (and (and (and (and (and (and (and (and (and (and (and (and (and (and (and (and (and (and (and (and (and (and (and (and (and (and (and (and (and (and (and (and (and (and (and (and (and (and (and (and (and (and (and (and (and (and (and (and (and (and (and (and (and (and (and (and (and (and (and (and (and (and (and (and (and (and (and (and (and (and (and (and (and (and (and (and (and (and (and (and (and (and (and (and (and (and (and (and (and (and (and (and (and (and (and (and (and (and (and (and (and (and (and (and (and (and (and (and (and (and (and (and (and (and (and (and (and (and (and (and (and (and (and (and (and (and (and (and (and (and (and (and (and (and (and (and (and (and (and (and (and (and (and (and (and (and (and (and (and (and (and (and (and (and (and (and (and (and (and (and (and (and (and (and (and (and (and (and (and (and (and (and (and (and (and (and (and (and (and (and (and (and (and (and (and (and (and (and (and (and (and (and (and (and (and (and (and (and (and (and (and (and (and (and (and (and (and (and (and (and (and (and (and (and (and (and (and (and (and (and (and (and (and (and (and (and (and (and (and (and (and (and (and (and (and (and (and (and (and (and (and (and (and (and (and (and (and (and (and (and (and (and (and (and (and (and (and (and (and (and (and (and (and (and (and (and (and (and (and (and (and (and (and (and (and (and (and (and (and (and (and (and (and (and (and (and (and (and (and (and (and (and (and (and (and (and (and (and (and (and (and (and (and (and (and (and (and (and (and (and (and (and (and (and (and (and (and (and (and (and (and (and (and (and (and (and (and (and (and (and (and (and (and (and (and (and (or (or ?v_2 ?v_3) P3) (or (or ?v_52 ?v_66) P39)) (or (or ?v_33 ?v_43) ?v_150)) (or (or P17 ?v_123) ?v_13)) (or (or ?v_45 P14) P4)) (or (or ?v_37 ?v_0) P3)) (or (or P31 ?v_113) ?v_38)) (or (or ?v_1 ?v_143) ?v_9)) (or (or ?v_0 ?v_167) P32)) (or (or ?v_95 ?v_2) ?v_27)) (or (or ?v_81 ?v_44) ?v_79)) (or (or ?v_41 ?v_3) ?v_24)) (or (or ?v_12 ?v_133) ?v_89)) (or (or ?v_92 P1) ?v_4)) (or (or ?v_195 P21) ?v_4)) (or (or ?v_82 ?v_109) ?v_144)) (or (or ?v_100 ?v_8) ?v_64)) (or (or ?v_188 ?v_99) ?v_102)) (or (or ?v_6 ?v_20) P36)) (or (or ?v_40 ?v_7) ?v_139)) (or (or ?v_9 ?v_68) ?v_111)) (or (or P24 ?v_51) ?v_16)) (or (or ?v_119 ?v_185) ?v_84)) (or (or ?v_156 ?v_17) ?v_101)) (or (or P15 ?v_57) ?v_42)) (or (or ?v_170 ?v_15) ?v_166)) (or (or P21 P9) ?v_18)) (or (or ?v_105 ?v_16) ?v_131)) (or (or ?v_93 ?v_17) ?v_22)) (or (or ?v_35 P27) ?v_26)) (or (or ?v_23 ?v_20) ?v_21)) (or (or ?v_28 ?v_22) ?v_59)) (or (or ?v_18 ?v_31) P23)) (or (or ?v_50 ?v_135) ?v_24)) (or (or ?v_25 ?v_62) ?v_26)) (or (or ?v_9 ?v_27) P20)) (or (or ?v_186 ?v_29) ?v_162)) (or (or ?v_110 ?v_31) ?v_8)) (or (or ?v_32 ?v_33) ?v_34)) (or (or ?v_72 ?v_53) ?v_35)) (or (or ?v_36 ?v_88) ?v_21)) (or (or ?v_38 ?v_23) ?v_39)) (or (or ?v_152 ?v_137) ?v_157)) (or (or ?v_34 ?v_146) ?v_40)) (or (or ?v_29 ?v_127) P16)) (or (or ?v_63 ?v_47) ?v_125)) (or (or P10 ?v_67) ?v_48)) (or (or ?v_42 ?v_43) ?v_104)) (or (or ?v_55 ?v_3) ?v_6)) (or (or P25 ?v_184) ?v_45)) (or (or ?v_46 ?v_47) P4)) (or (or ?v_48 ?v_49) ?v_85)) (or (or P4 ?v_51) ?v_117)) (or (or ?v_70 ?v_56) ?v_43)) (or (or ?v_130 P38) ?v_26)) (or (or ?v_38 P32) ?v_52)) (or (or P11 ?v_122) ?v_54)) (or (or ?v_76 ?v_55) ?v_94)) (or (or P37 ?v_25) ?v_107)) (or (or ?v_83 ?v_56) ?v_54)) (or (or ?v_2 ?v_87) ?v_58)) (or (or ?v_57 ?v_41) ?v_58)) (or (or P21 ?v_59) ?v_60)) (or (or ?v_61 P33) P21)) (or (or ?v_62 P30) ?v_63)) (or (or ?v_26 ?v_121) ?v_64)) (or (or ?v_65 ?v_63) ?v_66)) (or (or ?v_67 ?v_68) ?v_69)) (or (or ?v_70 ?v_178) ?v_71)) (or (or ?v_72 P15) ?v_73)) (or (or ?v_96 ?v_74) ?v_16)) (or (or ?v_90 ?v_76) ?v_2)) (or (or P29 ?v_24) P34)) (or (or ?v_70 ?v_115) ?v_77)) (or (or ?v_17 P35) ?v_26)) (or (or ?v_138 ?v_97) ?v_78)) (or (or P4 ?v_78) ?v_46)) (or (or ?v_192 ?v_65) ?v_27)) (or (or ?v_114 ?v_86) ?v_52)) (or (or P29 ?v_21) P34)) (or (or ?v_54 ?v_15) ?v_80)) (or (or P13 P3) ?v_81)) (or (or ?v_82 ?v_83) ?v_54)) (or (or ?v_84 ?v_43) ?v_85)) (or (or ?v_86 ?v_87) ?v_106)) (or (or ?v_25 ?v_88) ?v_73)) (or (or ?v_89 ?v_32) ?v_90)) (or (or P9 ?v_27) ?v_91)) (or (or ?v_83 ?v_92) P39)) (or (or ?v_0 ?v_1) ?v_93)) (or (or ?v_0 ?v_72) ?v_94)) (or (or ?v_38 ?v_95) ?v_52)) (or (or P37 ?v_126) ?v_84)) (or (or ?v_96 ?v_80) P28)) (or (or ?v_81 ?v_38) ?v_67)) (or (or ?v_181 ?v_194) ?v_16)) (or (or ?v_142 ?v_112) P2)) (or (or ?v_98 P34) ?v_38)) (or (or ?v_99 ?v_100) ?v_101)) (or (or ?v_132 ?v_42) ?v_102)) (or (or ?v_1 ?v_103) ?v_104)) (or (or P22 ?v_9) ?v_105)) (or (or ?v_82 P5) ?v_45)) (or (or P37 ?v_108) ?v_28)) (or (or ?v_107 ?v_46) ?v_108)) (or (or ?v_109 ?v_173) ?v_84)) (or (or ?v_111 ?v_94) ?v_134)) (or (or ?v_112 ?v_91) ?v_57)) (or (or ?v_116 ?v_113) ?v_37)) (or (or ?v_114 ?v_51) P16)) (or (or ?v_171 ?v_17) ?v_204)) (or (or ?v_109 ?v_72) ?v_141)) (or (or ?v_86 ?v_115) ?v_147)) (or (or ?v_72 ?v_116) ?v_117)) (or (or ?v_118 ?v_140) ?v_91)) (or (or ?v_82 ?v_47) ?v_153)) (or (or ?v_124 ?v_22) ?v_119)) (or (or ?v_120 ?v_62) ?v_121)) (or (or ?v_122 ?v_123) ?v_164)) (or (or ?v_125 ?v_45) ?v_126)) (or (or ?v_127 ?v_128) ?v_129)) (or (or ?v_187 ?v_62) ?v_136)) (or (or ?v_130 ?v_70) P10)) (or (or ?v_61 ?v_109) ?v_77)) (or (or ?v_57 ?v_98) ?v_88)) (or (or ?v_116 ?v_105) P4)) (or (or ?v_22 ?v_131) ?v_132)) (or (or ?v_21 ?v_95) ?v_133)) (or (or ?v_151 ?v_133) P23)) (or (or P28 ?v_61) ?v_96)) (or (or ?v_72 ?v_134) P30)) (or (or ?v_81 ?v_135) ?v_97)) (or (or ?v_129 ?v_79) ?v_58)) (or (or ?v_131 ?v_136) ?v_122)) (or (or ?v_9 ?v_47) P35)) (or (or ?v_93 ?v_159) ?v_99)) (or (or ?v_104 ?v_39) ?v_78)) (or (or ?v_137 ?v_91) ?v_50)) (or (or P23 ?v_98) ?v_51)) (or (or ?v_138 ?v_176) ?v_73)) (or (or ?v_45 ?v_139) ?v_57)) (or (or ?v_34 P28) ?v_36)) (or (or ?v_35 ?v_140) ?v_73)) (or (or ?v_42 ?v_133) ?v_141)) (or (or ?v_124 ?v_23) ?v_142)) (or (or ?v_118 ?v_86) ?v_198)) (or (or P15 ?v_116) ?v_29)) (or (or ?v_143 ?v_62) P3)) (or (or ?v_71 ?v_28) P26)) (or (or ?v_61 ?v_165) ?v_12)) (or (or P6 ?v_64) P20)) (or (or ?v_65 ?v_3) ?v_46)) (or (or ?v_56 ?v_71) ?v_98)) (or (or ?v_115 P25) ?v_114)) (or (or ?v_120 ?v_60) ?v_139)) (or (or ?v_161 P19) ?v_65)) (or (or ?v_27 ?v_144) ?v_145)) (or (or ?v_146 ?v_73) ?v_69)) (or (or ?v_2 ?v_110) ?v_99)) (or (or ?v_33 P11) ?v_25)) (or (or ?v_60 ?v_64) ?v_41)) (or (or ?v_147 ?v_120) ?v_138)) (or (or ?v_59 ?v_98) P32)) (or (or ?v_155 ?v_208) ?v_41)) (or (or ?v_200 ?v_150) ?v_151)) (or (or ?v_54 P16) P2)) (or (or P18 ?v_98) ?v_130)) (or (or P3 ?v_191) ?v_91)) (or (or ?v_4 ?v_96) ?v_17)) (or (or ?v_153 ?v_92) ?v_131)) (or (or P4 P25) ?v_49)) (or (or ?v_15 ?v_118) ?v_151)) (or (or ?v_158 ?v_137) P24)) (or (or ?v_154 ?v_155) P12)) (or (or P6 ?v_152) ?v_37)) (or (or ?v_18 ?v_141) ?v_180)) (or (or ?v_56 ?v_99) ?v_97)) (or (or ?v_79 P32) ?v_156)) (or (or ?v_103 ?v_112) ?v_133)) (or (or ?v_120 P5) P3)) (or (or ?v_174 ?v_157) ?v_93)) (or (or P29 ?v_6) ?v_108)) (or (or P6 P11) ?v_179)) (or (or P31 ?v_52) ?v_153)) (or (or ?v_125 ?v_138) ?v_86)) (or (or ?v_120 ?v_26) ?v_72)) (or (or P14 ?v_127) ?v_4)) (or (or ?v_47 ?v_52) ?v_51)) (or (or ?v_112 ?v_159) ?v_136)) (or (or ?v_56 ?v_56) ?v_152)) (or (or ?v_45 ?v_123) ?v_125)) (or (or ?v_108 ?v_123) P10)) (or (or ?v_13 ?v_145) ?v_141)) (or (or ?v_160 ?v_189) ?v_89)) (or (or ?v_161 ?v_25) ?v_162)) (or (or ?v_120 ?v_163) ?v_169)) (or (or ?v_127 ?v_46) ?v_115)) (or (or ?v_157 ?v_139) ?v_118)) (or (or P27 ?v_94) ?v_131)) (or (or ?v_141 P23) ?v_68)) (or (or ?v_123 P28) ?v_154)) (or (or ?v_120 ?v_68) ?v_35)) (or (or ?v_15 ?v_87) ?v_100)) (or (or ?v_92 P28) ?v_150)) (or (or P13 P30) ?v_183)) (or (or ?v_119 ?v_133) ?v_190)) (or (or ?v_140 ?v_164) P39)) (or (or ?v_159 ?v_94) ?v_78)) (or (or ?v_13 ?v_165) ?v_106)) (or (or ?v_166 P11) ?v_167)) (or (or P34 ?v_105) P28)) (or (or P15 ?v_97) P34)) (or (or ?v_48 ?v_88) ?v_159)) (or (or ?v_39 ?v_15) P32)) (or (or P4 ?v_91) ?v_154)) (or (or ?v_168 ?v_77) ?v_169)) (or (or ?v_169 ?v_168) ?v_93)) (or (or ?v_170 ?v_53) ?v_85)) (or (or ?v_107 ?v_83) ?v_203)) (or (or ?v_171 ?v_35) ?v_125)) (or (or ?v_17 ?v_23) ?v_96)) (or (or P12 ?v_172) ?v_173)) (or (or ?v_69 ?v_78) ?v_15)) (or (or ?v_118 ?v_74) ?v_20)) (or (or ?v_77 ?v_77) ?v_119)) (or (or P37 ?v_23) ?v_109)) (or (or ?v_168 P21) ?v_23)) (or (or ?v_100 ?v_155) ?v_16)) (or (or ?v_26 P22) ?v_135)) (or (or ?v_129 ?v_120) P36)) (or (or P20 P34) ?v_112)) (or (or P13 ?v_25) P17)) (or (or ?v_101 ?v_79) ?v_74)) (or (or P22 P29) P20)) (or (or ?v_174 ?v_48) ?v_131)) (or (or ?v_175 ?v_49) ?v_114)) (or (or ?v_103 ?v_166) ?v_146)) (or (or ?v_164 ?v_89) P31)) (or (or ?v_6 ?v_46) ?v_71)) (or (or ?v_153 P31) ?v_56)) (or (or ?v_176 ?v_103) ?v_167)) (or (or ?v_69 ?v_177) ?v_178)) (or (or ?v_40 ?v_88) ?v_160)) (or (or ?v_40 ?v_144) ?v_53)) (or (or ?v_150 ?v_162) ?v_40)) (or (or ?v_121 ?v_119) ?v_111)) (or (or ?v_173 P27) ?v_163)) (or (or ?v_201 P26) ?v_88)) (or (or ?v_146 ?v_101) ?v_205)) (or (or ?v_113 ?v_141) ?v_143)) (or (or ?v_145 ?v_15) ?v_6)) (or (or ?v_6 P34) ?v_46)) (or (or ?v_46 ?v_1) ?v_117)) (or (or ?v_138 ?v_162) P25)) (or (or ?v_166 ?v_179) ?v_105)) (or (or P9 ?v_130) ?v_115)) (or (or ?v_177 P39) ?v_73)) (or (or ?v_64 ?v_146) ?v_180)) (or (or ?v_2 ?v_126) ?v_6)) (or (or P39 ?v_119) ?v_182)) (or (or ?v_121 ?v_36) P30)) (or (or P2 P24) ?v_202)) (or (or ?v_109 P39) P12)) (or (or ?v_182 ?v_112) ?v_16)) (or (or ?v_106 ?v_66) ?v_180)) (or (or P31 ?v_24) ?v_53)) (or (or ?v_183 ?v_184) ?v_84)) (or (or ?v_93 P18) ?v_161)) (or (or ?v_43 ?v_107) ?v_99)) (or (or ?v_185 ?v_186) ?v_129)) (or (or P2 ?v_92) P28)) (or (or ?v_187 ?v_122) P33)) (or (or ?v_188 ?v_172) P23)) (or (or ?v_70 ?v_45) ?v_132)) (or (or ?v_40 ?v_21) ?v_54)) (or (or ?v_74 P30) ?v_186)) (or (or ?v_182 ?v_60) ?v_26)) (or (or ?v_193 ?v_103) ?v_53)) (or (or P0 ?v_124) ?v_102)) (or (or ?v_27 ?v_70) ?v_62)) (or (or ?v_77 ?v_189) ?v_163)) (or (or ?v_190 ?v_108) ?v_131)) (or (or ?v_46 ?v_46) ?v_158)) (or (or ?v_191 ?v_27) ?v_66)) (or (or ?v_106 ?v_129) ?v_192)) (or (or P21 ?v_15) ?v_9)) (or (or ?v_9 P13) P6)) (or (or ?v_91 ?v_33) ?v_81)) (or (or ?v_50 P17) P14)) (or (or ?v_73 ?v_89) ?v_169)) (or (or ?v_74 ?v_120) ?v_117)) (or (or ?v_132 ?v_22) P4)) (or (or ?v_122 P9) ?v_132)) (or (or ?v_125 ?v_41) P13)) (or (or P2 ?v_131) ?v_142)) (or (or ?v_129 ?v_193) ?v_173)) (or (or ?v_162 ?v_116) ?v_31)) (or (or P0 ?v_97) P26)) (or (or P31 ?v_1) ?v_134)) (or (or ?v_50 ?v_194) ?v_162)) (or (or ?v_31 ?v_180) ?v_54)) (or (or ?v_170 ?v_25) P34)) (or (or ?v_50 ?v_3) ?v_35)) (or (or ?v_153 ?v_185) ?v_111)) (or (or ?v_145 ?v_71) ?v_104)) (or (or ?v_76 ?v_15) ?v_90)) (or (or ?v_61 P22) ?v_113)) (or (or ?v_8 ?v_195) ?v_43)) (or (or P1 ?v_103) ?v_34)) (or (or ?v_108 ?v_46) ?v_183)) (or (or ?v_33 ?v_80) ?v_154)) (or (or ?v_20 P39) ?v_159)) (or (or ?v_60 ?v_46) P33)) (or (or ?v_77 ?v_18) ?v_179)) (or (or P30 ?v_101) ?v_133)) (or (or ?v_199 P5) P28)) (or (or ?v_42 ?v_193) ?v_46)) (or (or ?v_73 ?v_180) P9)) (or (or P34 ?v_179) ?v_196)) (or (or ?v_18 P38) ?v_112)) (or (or ?v_55 P3) P4)) (or (or ?v_195 ?v_16) ?v_131)) (or (or ?v_102 ?v_133) P5)) (or (or ?v_79 P39) ?v_177)) (or (or ?v_33 ?v_87) ?v_136)) (or (or ?v_108 ?v_150) ?v_77)) (or (or ?v_197 ?v_147) ?v_118)) (or (or ?v_177 ?v_26) ?v_151)) (or (or P36 P15) ?v_44)) (or (or ?v_198 ?v_194) ?v_95)) (or (or P7 ?v_28) ?v_81)) (or (or ?v_8 P39) P9)) (or (or ?v_193 ?v_129) ?v_98)) (or (or ?v_187 P16) ?v_3)) (or (or ?v_159 P39) P6)) (or (or ?v_107 ?v_199) ?v_136)) (or (or ?v_58 ?v_198) ?v_70)) (or (or ?v_200 P11) P23)) (or (or P7 P37) P28)) (or (or ?v_39 P5) ?v_79)) (or (or ?v_164 ?v_143) P39)) (or (or ?v_95 ?v_187) ?v_200)) (or (or ?v_20 ?v_181) ?v_192)) (or (or ?v_96 ?v_47) ?v_201)) (or (or P7 ?v_105) ?v_63)) (or (or P7 ?v_36) ?v_27)) (or (or ?v_92 ?v_76) ?v_32)) (or (or ?v_9 P4) ?v_97)) (or (or ?v_93 ?v_57) ?v_133)) (or (or ?v_147 ?v_90) ?v_97)) (or (or ?v_202 ?v_106) ?v_175)) (or (or ?v_47 P8) ?v_190)) (or (or ?v_156 ?v_76) ?v_190)) (or (or ?v_120 ?v_7) ?v_125)) (or (or ?v_22 ?v_207) ?v_86)) (or (or ?v_153 ?v_152) ?v_203)) (or (or P23 P2) ?v_89)) (or (or ?v_170 ?v_167) ?v_31)) (or (or ?v_55 ?v_112) ?v_123)) (or (or ?v_189 ?v_138) P15)) (or (or P39 ?v_189) ?v_135)) (or (or ?v_196 ?v_71) P31)) (or (or P28 ?v_163) ?v_171)) (or (or ?v_78 ?v_1) P38)) (or (or ?v_1 P9) ?v_124)) (or (or ?v_53 ?v_59) ?v_24)) (or (or ?v_129 ?v_134) P22)) (or (or ?v_4 ?v_135) ?v_129)) (or (or ?v_136 ?v_63) ?v_80)) (or (or ?v_71 ?v_117) ?v_129)) (or (or ?v_18 ?v_16) ?v_70)) (or (or ?v_163 ?v_16) ?v_89)) (or (or ?v_182 ?v_102) ?v_22)) (or (or ?v_65 ?v_72) ?v_142)) (or (or ?v_59 P3) ?v_124)) (or (or ?v_127 ?v_16) ?v_82)) (or (or ?v_139 ?v_71) P1)) (or (or ?v_171 ?v_104) ?v_126)) (or (or ?v_94 ?v_113) ?v_204)) (or (or P16 ?v_79) ?v_178)) (or (or ?v_58 ?v_23) ?v_44)) (or (or P22 ?v_65) ?v_185)) (or (or ?v_23 ?v_173) P19)) (or (or ?v_145 P31) ?v_153)) (or (or ?v_68 P6) P13)) (or (or ?v_139 ?v_25) ?v_81)) (or (or P12 ?v_141) ?v_143)) (or (or ?v_24 ?v_109) ?v_155)) (or (or P7 ?v_9) ?v_95)) (or (or ?v_56 ?v_130) ?v_157)) (or (or P28 ?v_44) ?v_137)) (or (or ?v_50 ?v_49) ?v_202)) (or (or ?v_55 ?v_26) P17)) (or (or ?v_105 ?v_142) ?v_98)) (or (or ?v_0 ?v_51) ?v_109)) (or (or ?v_205 ?v_38) P27)) (or (or ?v_130 ?v_121) ?v_196)) (or (or ?v_87 ?v_40) P33)) (or (or ?v_59 ?v_78) ?v_85)) (or (or ?v_7 ?v_115) ?v_61)) (or (or ?v_40 ?v_137) ?v_182)) (or (or ?v_35 ?v_144) ?v_121)) (or (or ?v_0 ?v_206) ?v_195)) (or (or ?v_69 P5) P31)) (or (or ?v_4 P37) P35)) (or (or ?v_126 P14) ?v_155)) (or (or ?v_89 ?v_191) ?v_80)) (or (or ?v_63 ?v_109) ?v_60)) (or (or ?v_159 ?v_186) ?v_41)) (or (or ?v_122 P18) ?v_142)) (or (or ?v_65 ?v_12) P23)) (or (or ?v_146 ?v_4) ?v_143)) (or (or ?v_94 ?v_54) ?v_176)) (or (or ?v_188 P3) ?v_147)) (or (or ?v_130 ?v_20) P34)) (or (or ?v_178 ?v_147) P17)) (or (or P23 ?v_197) ?v_65)) (or (or ?v_40 ?v_93) ?v_187)) (or (or ?v_58 ?v_201) P14)) (or (or ?v_129 ?v_45) ?v_161)) (or (or P10 ?v_179) ?v_82)) (or (or ?v_145 ?v_84) ?v_207)) (or (or ?v_99 ?v_70) ?v_195)) (or (or ?v_48 ?v_141) ?v_18)) (or (or ?v_53 ?v_202) P18)) (or (or ?v_177 ?v_105) ?v_68)) (or (or ?v_64 P31) ?v_159)) (or (or ?v_3 ?v_170) ?v_105)) (or (or ?v_72 ?v_102) ?v_35)) (or (or ?v_12 P23) P16)) (or (or ?v_208 ?v_107) ?v_202)) (or (or ?v_196 ?v_165) ?v_146)) (or (or ?v_7 ?v_56) ?v_49)) (or (or ?v_168 ?v_175) ?v_125)) (or (or ?v_34 ?v_190) ?v_187)) (or (or ?v_141 P30) ?v_110)) (or (or ?v_116 ?v_98) ?v_28)) (or (or ?v_131 ?v_125) ?v_46)) (or (or P28 ?v_171) ?v_45)) (or (or ?v_79 ?v_47) P1)) (or (or ?v_130 ?v_34) ?v_131)) (or (or ?v_4 P33) ?v_26)) (or (or ?v_47 ?v_164) ?v_205)) (or (or ?v_25 ?v_107) ?v_142)) (or (or P15 ?v_206) ?v_160)) (or (or ?v_76 ?v_118) ?v_126)) (or (or ?v_198 ?v_137) ?v_178)) (or (or ?v_118 P1) ?v_126)) (or (or ?v_81 ?v_163) ?v_176)) (or (or ?v_122 ?v_62) ?v_42)) (or (or ?v_136 P39) P29)) (or (or ?v_61 ?v_17) ?v_187)) (or (or P14 P37) ?v_67)) (or (or P2 ?v_195) ?v_123)) (or (or ?v_171 ?v_87) ?v_84)) (or (or P18 ?v_127) ?v_109)) (or (or ?v_18 ?v_202) ?v_145)) (or (or ?v_98 ?v_34) ?v_129)) (or (or ?v_68 ?v_23) P25)) (or (or P0 ?v_96) ?v_135)) (or (or ?v_208 ?v_95) ?v_137)) (or (or ?v_123 ?v_52) ?v_124)) (or (or P4 P34) ?v_130)) (or (or ?v_87 P12) ?v_116)) (or (or ?v_127 ?v_90) ?v_144)) (or (or ?v_42 ?v_186) ?v_124)) (or (or ?v_26 ?v_155) ?v_25)) (or (or ?v_133 ?v_97) ?v_95)) (or (or ?v_205 ?v_143) ?v_117)) (or (or ?v_79 ?v_53) ?v_17)) (or (or ?v_12 ?v_162) ?v_120)) (or (or ?v_181 ?v_18) ?v_105)) (or (or ?v_139 P18) ?v_12)) (or (or P10 ?v_119) ?v_111)) (or (or ?v_74 ?v_191) ?v_119)) (or (or ?v_180 ?v_68) ?v_172)) (or (or ?v_178 ?v_51) ?v_111)) (or (or ?v_131 ?v_115) ?v_87)) (or (or ?v_144 ?v_51) ?v_107)) (or (or P19 ?v_85) ?v_146)))))))))))))))))))))))))))))
(check-sat)
(exit)
